28 28
22
3 3 16 16
3 4 3 24
3 5 9 0
3 6 3 18
3 7 0 21
3 8 3 0
3 9 16 19
3 10 3 8
3 11 6 17
3 16 16 0
3 17 6 0
3 21 0 0
3 23 9 5
4 3 19 12
4 4 19 8
4 5 12 23
4 8 19 0
4 13 24 15
4 23 12 0
5 6 23 9
5 9 23 0
5 13 19 15
